benchmarks/crosswords/mzn/crossword3_69.ozn
output ([(((("\n"++problem_name)++"\n")++"L:")++show(L))++"\n"]++[if problem[i,j]==0 then "*" else show(letters[fix(L[problem[i,j]])]) endif++if j==cols then "\n" else "" endif | i in 1..rows, j in 1..cols, ])++["\n"];
int: rows = 9;
int: cols = 9;
array [1..rows,1..cols] of int: problem = [|0,0,0,1,2,3,0,0,0|0,0,4,5,6,7,8,0,0|0,9,10,11,12,13,14,15,0|16,17,18,19,0,20,21,22,23|24,25,26,0,0,0,27,28,29|30,31,32,33,0,34,35,36,37|0,38,39,40,41,42,43,44,0|0,0,45,46,47,48,49,0,0|0,0,0,50,51,52,0,0,0|];
int: num_letters = 26;
array [1..num_letters] of string: letters = ["a","b","c","d","e","f","g","h","i","j","k","l","m","n","o","p","q","r","s","t","u","v","w","x","y","z"];
int: N = 52;
array [0..N] of int: L;
string: problem_name = "puzzle20, 9 x 9";
